decision_x1=[0,4];
decision_x2=[0,4];
decision_x3=[0,4];
decision_x4=[0,4];
decision_x5=[0,4];
random_y1=[0,4];
constraint_x2_x1=[
0,1,8.3|
0,2,2.6|
0,3,3.9|
0,4,5.4|
1,0,8|
1,2,0.85|
1,3,6.5|
1,4,5.3|
2,0,8.8|
2,1,8.8|
2,3,0.62|
2,4,6.9|
3,0,4.7|
3,1,7.9|
3,2,8.8|
3,4,1.7|
4,0,9.7|
4,1,4.3|
4,2,0.64|
4,3,1.9|
];
constraint_x3_x1=[
0,1,1.5|
0,2,3.3|
0,3,3.3|
0,4,2.2|
1,0,2.3|
1,2,6.5|
1,3,7|
1,4,0.62|
2,0,9.7|
2,1,2.7|
2,3,7.3|
2,4,0.56|
3,0,0.4|
3,1,1.7|
3,2,5.6|
3,4,5.5|
4,0,1.7|
4,1,2.3|
4,2,5.1|
4,3,1.7|
];
constraint_x4_x3=[
0,1,4.2|
0,2,4.6|
0,3,3.2|
0,4,5|
1,0,8.2|
1,2,1.2|
1,3,5|
1,4,0.73|
2,0,8.9|
2,1,4.9|
2,3,4.3|
2,4,6.7|
3,0,6.2|
3,1,0.68|
3,2,2|
3,4,7.4|
4,0,3.1|
4,1,2.2|
4,2,1|
4,3,2.5|
];
constraint_x5_x1=[
0,1,0.13|
0,2,1.7|
0,3,6|
0,4,0.35|
1,0,3.7|
1,2,9.2|
1,3,7.3|
1,4,9.6|
2,0,4.6|
2,1,3.1|
2,3,7.4|
2,4,8.8|
3,0,5.4|
3,1,0.7|
3,2,7|
3,4,2.4|
4,0,1.6|
4,1,2.1|
4,2,4.5|
4,3,7.9|
];
constraint_x5_x2=[
0,1,4.8|
0,2,1.5|
0,3,0.85|
0,4,0.46|
1,0,3.4|
1,2,2.9|
1,3,5.1|
1,4,6.8|
2,0,2.8|
2,1,9.4|
2,3,8.8|
2,4,7.4|
3,0,0.54|
3,1,1.6|
3,2,8.3|
3,4,6|
4,0,0.12|
4,1,9.6|
4,2,9.3|
4,3,6.9|
];
constraint_x1_y1=[
0,0,6.4|
0,1,0.49|
0,2,2.5|
0,3,7.3|
0,4,1.2|
1,0,1.2|
1,1,4.2|
1,2,4.9|
1,3,9.6|
1,4,5.4|
2,0,1.2|
2,1,0.26|
2,2,2.3|
2,3,7.8|
2,4,2.7|
3,0,1.8|
3,1,9.4|
3,2,2.8|
3,3,2.7|
3,4,4.5|
4,0,7|
4,1,5.6|
4,2,0.37|
4,3,9.7|
4,4,7.9|
];
initial_distribution_y1=[0.16,0.25,0.13,0.29,0.17];
transition_y1=[
0.077,0.1,0.22,0.55,0.046|
0.26,0.25,0.084,0.21,0.2|
0.04,0.11,0.29,0.35,0.21|
0.0088,0.38,0.37,0.14,0.1|
0.062,0.29,0.2,0.17,0.28|
];
